(declare-fun Config_r2_RouteFilterList_customer1_network__Line1__203_0_113_0__ip
             ()
             (_ BitVec 32))
(declare-fun Config_r2_RouteFilterList_customer1_network__Line1__203_0_113_0__mask
             ()
             (_ BitVec 32))
(declare-fun Config_r2_RouteFilterList_customer1_network__Line1__203_0_113_0__length
             ()
             Int)
(declare-fun Config_r2_RouteFilterList_customer1_network__Line1__203_0_113_0__prefix_range_start
             ()
             Int)
(declare-fun Config_r2_RouteFilterList_customer1_network__Line1__203_0_113_0__prefix_range_end
             ()
             Int)
(declare-fun Config_r2_RouteFilterList_customer1_network__Line1__203_0_113_0__action
             ()
             Bool)
(declare-fun Config_r2_RouteFilterList_customer2_network__Line1__203_0_113_128__ip
             ()
             (_ BitVec 32))
(declare-fun Config_r2_RouteFilterList_customer2_network__Line1__203_0_113_128__mask
             ()
             (_ BitVec 32))
(declare-fun Config_r2_RouteFilterList_customer2_network__Line1__203_0_113_128__length
             ()
             Int)
(declare-fun Config_r2_RouteFilterList_customer2_network__Line1__203_0_113_128__prefix_range_start
             ()
             Int)
(declare-fun Config_r2_RouteFilterList_customer2_network__Line1__203_0_113_128__prefix_range_end
             ()
             Int)
(declare-fun Config_r2_RouteFilterList_customer2_network__Line1__203_0_113_128__action
             ()
             Bool)
(declare-fun Config_r2_RouteFilterList_default_ips__Line1__0_0_0_0__ip
             ()
             (_ BitVec 32))
(declare-fun Config_r2_RouteFilterList_default_ips__Line1__0_0_0_0__mask
             ()
             (_ BitVec 32))
(declare-fun Config_r2_RouteFilterList_default_ips__Line1__0_0_0_0__length
             ()
             Int)
(declare-fun Config_r2_RouteFilterList_default_ips__Line1__0_0_0_0__prefix_range_start
             ()
             Int)
(declare-fun Config_r2_RouteFilterList_default_ips__Line1__0_0_0_0__prefix_range_end
             ()
             Int)
(declare-fun Config_r2_RouteFilterList_default_ips__Line1__0_0_0_0__action
             ()
             Bool)
(declare-fun Config_r2_RouteFilterList_isp_network__Line1__192_0_2_0__ip
             ()
             (_ BitVec 32))
(declare-fun Config_r2_RouteFilterList_isp_network__Line1__192_0_2_0__mask
             ()
             (_ BitVec 32))
(declare-fun Config_r2_RouteFilterList_isp_network__Line1__192_0_2_0__length
             ()
             Int)
(declare-fun Config_r2_RouteFilterList_isp_network__Line1__192_0_2_0__prefix_range_start
             ()
             Int)
(declare-fun Config_r2_RouteFilterList_isp_network__Line1__192_0_2_0__prefix_range_end
             ()
             Int)
(declare-fun Config_r2_RouteFilterList_isp_network__Line1__192_0_2_0__action
             ()
             Bool)
(declare-fun Config_r2_RouteFilterList_isp_network__Line2__198_51_100_0__ip
             ()
             (_ BitVec 32))
(declare-fun Config_r2_RouteFilterList_isp_network__Line2__198_51_100_0__mask
             ()
             (_ BitVec 32))
(declare-fun Config_r2_RouteFilterList_isp_network__Line2__198_51_100_0__length
             ()
             Int)
(declare-fun Config_r2_RouteFilterList_isp_network__Line2__198_51_100_0__prefix_range_start
             ()
             Int)
(declare-fun Config_r2_RouteFilterList_isp_network__Line2__198_51_100_0__prefix_range_end
             ()
             Int)
(declare-fun Config_r2_RouteFilterList_isp_network__Line2__198_51_100_0__action
             ()
             Bool)
(declare-fun Config_r2_CommunityList_isp1_community__Line1__action () Bool)
(declare-fun Config_r2_CommunityList_isp1_community__Line1__community () Bool)
(declare-fun Config_r2_RoutingPolicy_as1_to_as3__Line2__set_metric_50 () Int)
(declare-fun Config_r2_RoutingPolicy_as1_to_as3__Line3__set_metric_50 () Int)
(declare-fun Config_r2_RoutingPolicy_as3_to_as1__Line1__set_localpreference_350
             ()
             Int)
(declare-fun Config_r2_RoutingPolicy_as3_to_as1__Line1__add_community_300_100_community
             ()
             Bool)
(declare-fun Config_r3_RouteFilterList_customer1_network__Line1__203_0_113_0__ip
             ()
             (_ BitVec 32))
(declare-fun Config_r3_RouteFilterList_customer1_network__Line1__203_0_113_0__mask
             ()
             (_ BitVec 32))
(declare-fun Config_r3_RouteFilterList_customer1_network__Line1__203_0_113_0__length
             ()
             Int)
(declare-fun Config_r3_RouteFilterList_customer1_network__Line1__203_0_113_0__prefix_range_start
             ()
             Int)
(declare-fun Config_r3_RouteFilterList_customer1_network__Line1__203_0_113_0__prefix_range_end
             ()
             Int)
(declare-fun Config_r3_RouteFilterList_customer1_network__Line1__203_0_113_0__action
             ()
             Bool)
(declare-fun Config_r3_RouteFilterList_customer2_network__Line1__203_0_113_128__ip
             ()
             (_ BitVec 32))
(declare-fun Config_r3_RouteFilterList_customer2_network__Line1__203_0_113_128__mask
             ()
             (_ BitVec 32))
(declare-fun Config_r3_RouteFilterList_customer2_network__Line1__203_0_113_128__length
             ()
             Int)
(declare-fun Config_r3_RouteFilterList_customer2_network__Line1__203_0_113_128__prefix_range_start
             ()
             Int)
(declare-fun Config_r3_RouteFilterList_customer2_network__Line1__203_0_113_128__prefix_range_end
             ()
             Int)
(declare-fun Config_r3_RouteFilterList_customer2_network__Line1__203_0_113_128__action
             ()
             Bool)
(declare-fun Config_r3_RouteFilterList_default_ips__Line1__0_0_0_0__ip
             ()
             (_ BitVec 32))
(declare-fun Config_r3_RouteFilterList_default_ips__Line1__0_0_0_0__mask
             ()
             (_ BitVec 32))
(declare-fun Config_r3_RouteFilterList_default_ips__Line1__0_0_0_0__length
             ()
             Int)
(declare-fun Config_r3_RouteFilterList_default_ips__Line1__0_0_0_0__prefix_range_start
             ()
             Int)
(declare-fun Config_r3_RouteFilterList_default_ips__Line1__0_0_0_0__prefix_range_end
             ()
             Int)
(declare-fun Config_r3_RouteFilterList_default_ips__Line1__0_0_0_0__action
             ()
             Bool)
(declare-fun Config_r3_RouteFilterList_private_ips__Line1__10_0_0_0__ip
             ()
             (_ BitVec 32))
(declare-fun Config_r3_RouteFilterList_private_ips__Line1__10_0_0_0__mask
             ()
             (_ BitVec 32))
(declare-fun Config_r3_RouteFilterList_private_ips__Line1__10_0_0_0__length
             ()
             Int)
(declare-fun Config_r3_RouteFilterList_private_ips__Line1__10_0_0_0__prefix_range_start
             ()
             Int)
(declare-fun Config_r3_RouteFilterList_private_ips__Line1__10_0_0_0__prefix_range_end
             ()
             Int)
(declare-fun Config_r3_RouteFilterList_private_ips__Line1__10_0_0_0__action
             ()
             Bool)
(declare-fun Config_r3_RouteFilterList_private_ips__Line2__172_16_0_0__ip
             ()
             (_ BitVec 32))
(declare-fun Config_r3_RouteFilterList_private_ips__Line2__172_16_0_0__mask
             ()
             (_ BitVec 32))
(declare-fun Config_r3_RouteFilterList_private_ips__Line2__172_16_0_0__length
             ()
             Int)
(declare-fun Config_r3_RouteFilterList_private_ips__Line2__172_16_0_0__prefix_range_start
             ()
             Int)
(declare-fun Config_r3_RouteFilterList_private_ips__Line2__172_16_0_0__prefix_range_end
             ()
             Int)
(declare-fun Config_r3_RouteFilterList_private_ips__Line2__172_16_0_0__action
             ()
             Bool)
(declare-fun Config_r3_RouteFilterList_private_ips__Line3__192_168_0_0__ip
             ()
             (_ BitVec 32))
(declare-fun Config_r3_RouteFilterList_private_ips__Line3__192_168_0_0__mask
             ()
             (_ BitVec 32))
(declare-fun Config_r3_RouteFilterList_private_ips__Line3__192_168_0_0__length
             ()
             Int)
(declare-fun Config_r3_RouteFilterList_private_ips__Line3__192_168_0_0__prefix_range_start
             ()
             Int)
(declare-fun Config_r3_RouteFilterList_private_ips__Line3__192_168_0_0__prefix_range_end
             ()
             Int)
(declare-fun Config_r3_RouteFilterList_private_ips__Line3__192_168_0_0__action
             ()
             Bool)
(declare-fun Config_r3_CommunityList_isp1_community__Line1__action () Bool)
(declare-fun Config_r3_CommunityList_isp1_community__Line1__community () Bool)
(declare-fun Config_r3_CommunityList_isp2_community__Line1__action () Bool)
(declare-fun Config_r3_CommunityList_isp2_community__Line1__community () Bool)
(declare-fun Config_customer2_RoutingPolicy_BGP_COMMON_EXPORT_POLICY_default__Line1__203_0_113_128__ip
             ()
             (_ BitVec 32))
(declare-fun Config_customer2_RoutingPolicy_BGP_COMMON_EXPORT_POLICY_default__Line1__203_0_113_128__mask
             ()
             (_ BitVec 32))
(declare-fun Config_customer2_RoutingPolicy_BGP_COMMON_EXPORT_POLICY_default__Line1__203_0_113_128__length
             ()
             Int)
(declare-fun Config_customer2_RoutingPolicy_BGP_COMMON_EXPORT_POLICY_default__Line1__203_0_113_128__prefix_range_start
             ()
             Int)
(declare-fun Config_customer2_RoutingPolicy_BGP_COMMON_EXPORT_POLICY_default__Line1__203_0_113_128__prefix_range_end
             ()
             Int)
(declare-fun Config_customer2_RoutingPolicy_BGP_REDISTRIBUTION_default__Line1__203_0_113_128__ip
             ()
             (_ BitVec 32))
(declare-fun Config_customer2_RoutingPolicy_BGP_REDISTRIBUTION_default__Line1__203_0_113_128__mask
             ()
             (_ BitVec 32))
(declare-fun Config_customer2_RoutingPolicy_BGP_REDISTRIBUTION_default__Line1__203_0_113_128__length
             ()
             Int)
(declare-fun Config_customer2_RoutingPolicy_BGP_REDISTRIBUTION_default__Line1__203_0_113_128__prefix_range_start
             ()
             Int)
(declare-fun Config_customer2_RoutingPolicy_BGP_REDISTRIBUTION_default__Line1__203_0_113_128__prefix_range_end
             ()
             Int)
(declare-fun Config_isp1_RoutingPolicy_BGP_COMMON_EXPORT_POLICY_default__Line1__192_0_2_0__ip
             ()
             (_ BitVec 32))
(declare-fun Config_isp1_RoutingPolicy_BGP_COMMON_EXPORT_POLICY_default__Line1__192_0_2_0__mask
             ()
             (_ BitVec 32))
(declare-fun Config_isp1_RoutingPolicy_BGP_COMMON_EXPORT_POLICY_default__Line1__192_0_2_0__length
             ()
             Int)
(declare-fun Config_isp1_RoutingPolicy_BGP_COMMON_EXPORT_POLICY_default__Line1__192_0_2_0__prefix_range_start
             ()
             Int)
(declare-fun Config_isp1_RoutingPolicy_BGP_COMMON_EXPORT_POLICY_default__Line1__192_0_2_0__prefix_range_end
             ()
             Int)
(declare-fun Config_isp1_RoutingPolicy_BGP_REDISTRIBUTION_default__Line1__192_0_2_0__ip
             ()
             (_ BitVec 32))
(declare-fun Config_isp1_RoutingPolicy_BGP_REDISTRIBUTION_default__Line1__192_0_2_0__mask
             ()
             (_ BitVec 32))
(declare-fun Config_isp1_RoutingPolicy_BGP_REDISTRIBUTION_default__Line1__192_0_2_0__length
             ()
             Int)
(declare-fun Config_isp1_RoutingPolicy_BGP_REDISTRIBUTION_default__Line1__192_0_2_0__prefix_range_start
             ()
             Int)
(declare-fun Config_isp1_RoutingPolicy_BGP_REDISTRIBUTION_default__Line1__192_0_2_0__prefix_range_end
             ()
             Int)
(declare-fun Config_customer1_RoutingPolicy_BGP_COMMON_EXPORT_POLICY_default__Line1__203_0_113_0__ip
             ()
             (_ BitVec 32))
(declare-fun Config_customer1_RoutingPolicy_BGP_COMMON_EXPORT_POLICY_default__Line1__203_0_113_0__mask
             ()
             (_ BitVec 32))
(declare-fun Config_customer1_RoutingPolicy_BGP_COMMON_EXPORT_POLICY_default__Line1__203_0_113_0__length
             ()
             Int)
(declare-fun Config_customer1_RoutingPolicy_BGP_COMMON_EXPORT_POLICY_default__Line1__203_0_113_0__prefix_range_start
             ()
             Int)
(declare-fun Config_customer1_RoutingPolicy_BGP_COMMON_EXPORT_POLICY_default__Line1__203_0_113_0__prefix_range_end
             ()
             Int)
(declare-fun Config_customer1_RoutingPolicy_BGP_REDISTRIBUTION_default__Line1__203_0_113_0__ip
             ()
             (_ BitVec 32))
(declare-fun Config_customer1_RoutingPolicy_BGP_REDISTRIBUTION_default__Line1__203_0_113_0__mask
             ()
             (_ BitVec 32))
(declare-fun Config_customer1_RoutingPolicy_BGP_REDISTRIBUTION_default__Line1__203_0_113_0__length
             ()
             Int)
(declare-fun Config_customer1_RoutingPolicy_BGP_REDISTRIBUTION_default__Line1__203_0_113_0__prefix_range_start
             ()
             Int)
(declare-fun Config_customer1_RoutingPolicy_BGP_REDISTRIBUTION_default__Line1__203_0_113_0__prefix_range_end
             ()
             Int)
(declare-fun Config_isp2_RoutingPolicy_BGP_COMMON_EXPORT_POLICY_default__Line1__192_0_2_0__ip
             ()
             (_ BitVec 32))
(declare-fun Config_isp2_RoutingPolicy_BGP_COMMON_EXPORT_POLICY_default__Line1__192_0_2_0__mask
             ()
             (_ BitVec 32))
(declare-fun Config_isp2_RoutingPolicy_BGP_COMMON_EXPORT_POLICY_default__Line1__192_0_2_0__length
             ()
             Int)
(declare-fun Config_isp2_RoutingPolicy_BGP_COMMON_EXPORT_POLICY_default__Line1__192_0_2_0__prefix_range_start
             ()
             Int)
(declare-fun Config_isp2_RoutingPolicy_BGP_COMMON_EXPORT_POLICY_default__Line1__192_0_2_0__prefix_range_end
             ()
             Int)
(declare-fun Config_isp2_RoutingPolicy_BGP_COMMON_EXPORT_POLICY_default__Line1__198_51_100_0__ip
             ()
             (_ BitVec 32))
(declare-fun Config_isp2_RoutingPolicy_BGP_COMMON_EXPORT_POLICY_default__Line1__198_51_100_0__mask
             ()
             (_ BitVec 32))
(declare-fun Config_isp2_RoutingPolicy_BGP_COMMON_EXPORT_POLICY_default__Line1__198_51_100_0__length
             ()
             Int)
(declare-fun Config_isp2_RoutingPolicy_BGP_COMMON_EXPORT_POLICY_default__Line1__198_51_100_0__prefix_range_start
             ()
             Int)
(declare-fun Config_isp2_RoutingPolicy_BGP_COMMON_EXPORT_POLICY_default__Line1__198_51_100_0__prefix_range_end
             ()
             Int)
(declare-fun Config_isp2_RoutingPolicy_BGP_REDISTRIBUTION_default__Line1__192_0_2_0__ip
             ()
             (_ BitVec 32))
(declare-fun Config_isp2_RoutingPolicy_BGP_REDISTRIBUTION_default__Line1__192_0_2_0__mask
             ()
             (_ BitVec 32))
(declare-fun Config_isp2_RoutingPolicy_BGP_REDISTRIBUTION_default__Line1__192_0_2_0__length
             ()
             Int)
(declare-fun Config_isp2_RoutingPolicy_BGP_REDISTRIBUTION_default__Line1__192_0_2_0__prefix_range_start
             ()
             Int)
(declare-fun Config_isp2_RoutingPolicy_BGP_REDISTRIBUTION_default__Line1__192_0_2_0__prefix_range_end
             ()
             Int)
(declare-fun Config_isp2_RoutingPolicy_BGP_REDISTRIBUTION_default__Line1__198_51_100_0__ip
             ()
             (_ BitVec 32))
(declare-fun Config_isp2_RoutingPolicy_BGP_REDISTRIBUTION_default__Line1__198_51_100_0__mask
             ()
             (_ BitVec 32))
(declare-fun Config_isp2_RoutingPolicy_BGP_REDISTRIBUTION_default__Line1__198_51_100_0__length
             ()
             Int)
(declare-fun Config_isp2_RoutingPolicy_BGP_REDISTRIBUTION_default__Line1__198_51_100_0__prefix_range_start
             ()
             Int)
(declare-fun Config_isp2_RoutingPolicy_BGP_REDISTRIBUTION_default__Line1__198_51_100_0__prefix_range_end
             ()
             Int)
(declare-fun Config_r1_RouteFilterList_default_ips__Line1__0_0_0_0__ip
             ()
             (_ BitVec 32))
(declare-fun Config_r1_RouteFilterList_default_ips__Line1__0_0_0_0__mask
             ()
             (_ BitVec 32))
(declare-fun Config_r1_RouteFilterList_default_ips__Line1__0_0_0_0__length
             ()
             Int)
(declare-fun Config_r1_RouteFilterList_default_ips__Line1__0_0_0_0__prefix_range_start
             ()
             Int)
(declare-fun Config_r1_RouteFilterList_default_ips__Line1__0_0_0_0__prefix_range_end
             ()
             Int)
(declare-fun Config_r1_RouteFilterList_default_ips__Line1__0_0_0_0__action
             ()
             Bool)
(declare-fun Config_r1_RouteFilterList_isp_network__Line1__192_0_2_0__ip
             ()
             (_ BitVec 32))
(declare-fun Config_r1_RouteFilterList_isp_network__Line1__192_0_2_0__mask
             ()
             (_ BitVec 32))
(declare-fun Config_r1_RouteFilterList_isp_network__Line1__192_0_2_0__length
             ()
             Int)
(declare-fun Config_r1_RouteFilterList_isp_network__Line1__192_0_2_0__prefix_range_start
             ()
             Int)
(declare-fun Config_r1_RouteFilterList_isp_network__Line1__192_0_2_0__prefix_range_end
             ()
             Int)
(declare-fun Config_r1_RouteFilterList_isp_network__Line1__192_0_2_0__action
             ()
             Bool)
(declare-fun Config_r1_RouteFilterList_isp_network__Line2__198_51_100_0__ip
             ()
             (_ BitVec 32))
(declare-fun Config_r1_RouteFilterList_isp_network__Line2__198_51_100_0__mask
             ()
             (_ BitVec 32))
(declare-fun Config_r1_RouteFilterList_isp_network__Line2__198_51_100_0__length
             ()
             Int)
(declare-fun Config_r1_RouteFilterList_isp_network__Line2__198_51_100_0__prefix_range_start
             ()
             Int)
(declare-fun Config_r1_RouteFilterList_isp_network__Line2__198_51_100_0__prefix_range_end
             ()
             Int)
(declare-fun Config_r1_RouteFilterList_isp_network__Line2__198_51_100_0__action
             ()
             Bool)
(declare-fun Config_r1_CommunityList_isp1_community__Line1__action () Bool)
(declare-fun Config_r1_CommunityList_isp1_community__Line1__community () Bool)
(declare-fun Config_r1_RoutingPolicy_as2_to_as1__Line1__set_localpreference_400
             ()
             Int)
(declare-fun Config_r1_RoutingPolicy_as2_to_as1__Line1__add_community_200_100_community
             ()
             Bool)
(declare-fun Config_r1_RoutingPolicy_as3_to_as1__Line1__set_localpreference_350
             ()
             Int)
(declare-fun Config_r1_RoutingPolicy_as3_to_as1__Line1__add_community_300_100_community
             ()
             Bool)
(assert (= Config_r2_RouteFilterList_customer1_network__Line1__203_0_113_0__ip
   #xcb007100))
(assert (= Config_r2_RouteFilterList_customer1_network__Line1__203_0_113_0__mask
   #xffffff80))
(assert (= Config_r2_RouteFilterList_customer1_network__Line1__203_0_113_0__length 25))
(assert (= Config_r2_RouteFilterList_customer1_network__Line1__203_0_113_0__prefix_range_start
   25))
(assert (= Config_r2_RouteFilterList_customer1_network__Line1__203_0_113_0__prefix_range_end
   32))
(assert (= Config_r2_RouteFilterList_customer1_network__Line1__203_0_113_0__action true))
(assert (= Config_r2_RouteFilterList_customer2_network__Line1__203_0_113_128__ip
   #xcb007180))
(assert (= Config_r2_RouteFilterList_customer2_network__Line1__203_0_113_128__mask
   #xffffff80))
(assert (= Config_r2_RouteFilterList_customer2_network__Line1__203_0_113_128__length 25))
(assert (= Config_r2_RouteFilterList_customer2_network__Line1__203_0_113_128__prefix_range_start
   25))
(assert (= Config_r2_RouteFilterList_customer2_network__Line1__203_0_113_128__prefix_range_end
   32))
(assert (= Config_r2_RouteFilterList_customer2_network__Line1__203_0_113_128__action
   true))
(assert (= Config_r2_RouteFilterList_default_ips__Line1__0_0_0_0__ip #x00000000))
(assert (= Config_r2_RouteFilterList_default_ips__Line1__0_0_0_0__mask #x00000000))
(assert (= Config_r2_RouteFilterList_default_ips__Line1__0_0_0_0__length 0))
(assert (= Config_r2_RouteFilterList_default_ips__Line1__0_0_0_0__prefix_range_start 0))
(assert (= Config_r2_RouteFilterList_default_ips__Line1__0_0_0_0__prefix_range_end 32))
(assert (= Config_r2_RouteFilterList_default_ips__Line1__0_0_0_0__action true))
(assert (= Config_r2_RouteFilterList_isp_network__Line1__192_0_2_0__ip #xc0000200))
(assert (= Config_r2_RouteFilterList_isp_network__Line1__192_0_2_0__mask #xffffff00))
(assert (= Config_r2_RouteFilterList_isp_network__Line1__192_0_2_0__length 24))
(assert (= Config_r2_RouteFilterList_isp_network__Line1__192_0_2_0__prefix_range_start
   24))
(assert (= Config_r2_RouteFilterList_isp_network__Line1__192_0_2_0__prefix_range_end 32))
(assert (= Config_r2_RouteFilterList_isp_network__Line1__192_0_2_0__action true))
(assert (= Config_r2_RouteFilterList_isp_network__Line2__198_51_100_0__ip #xc6336400))
(assert (= Config_r2_RouteFilterList_isp_network__Line2__198_51_100_0__mask #xffffff00))
(assert (= Config_r2_RouteFilterList_isp_network__Line2__198_51_100_0__length 24))
(assert (= Config_r2_RouteFilterList_isp_network__Line2__198_51_100_0__prefix_range_start
   24))
(assert (= Config_r2_RouteFilterList_isp_network__Line2__198_51_100_0__prefix_range_end
   32))
(assert (= Config_r2_RouteFilterList_isp_network__Line2__198_51_100_0__action true))
(assert (= Config_r2_CommunityList_isp1_community__Line1__action true))
(assert (= Config_r2_CommunityList_isp1_community__Line1__community true))
(assert (= Config_r2_RoutingPolicy_as1_to_as3__Line2__set_metric_50 50))
(assert (= Config_r2_RoutingPolicy_as1_to_as3__Line3__set_metric_50 50))
(assert (= Config_r2_RoutingPolicy_as3_to_as1__Line1__set_localpreference_350 350))
(assert (= Config_r2_RoutingPolicy_as3_to_as1__Line1__add_community_300_100_community
   true))
(assert (= Config_r3_RouteFilterList_customer1_network__Line1__203_0_113_0__ip
   #xcb007100))
(assert (= Config_r3_RouteFilterList_customer1_network__Line1__203_0_113_0__mask
   #xffffff80))
(assert (= Config_r3_RouteFilterList_customer1_network__Line1__203_0_113_0__length 25))
(assert (= Config_r3_RouteFilterList_customer1_network__Line1__203_0_113_0__prefix_range_start
   25))
(assert (= Config_r3_RouteFilterList_customer1_network__Line1__203_0_113_0__prefix_range_end
   32))
(assert (= Config_r3_RouteFilterList_customer1_network__Line1__203_0_113_0__action true))
(assert (= Config_r3_RouteFilterList_customer2_network__Line1__203_0_113_128__ip
   #xcb007180))
(assert (= Config_r3_RouteFilterList_customer2_network__Line1__203_0_113_128__mask
   #xffffff80))
(assert (= Config_r3_RouteFilterList_customer2_network__Line1__203_0_113_128__length 25))
(assert (= Config_r3_RouteFilterList_customer2_network__Line1__203_0_113_128__prefix_range_start
   25))
(assert (= Config_r3_RouteFilterList_customer2_network__Line1__203_0_113_128__prefix_range_end
   32))
(assert (= Config_r3_RouteFilterList_customer2_network__Line1__203_0_113_128__action
   true))
(assert (= Config_r3_RouteFilterList_default_ips__Line1__0_0_0_0__ip #x00000000))
(assert (= Config_r3_RouteFilterList_default_ips__Line1__0_0_0_0__mask #x00000000))
(assert (= Config_r3_RouteFilterList_default_ips__Line1__0_0_0_0__length 0))
(assert (= Config_r3_RouteFilterList_default_ips__Line1__0_0_0_0__prefix_range_start 0))
(assert (= Config_r3_RouteFilterList_default_ips__Line1__0_0_0_0__prefix_range_end 32))
(assert (= Config_r3_RouteFilterList_default_ips__Line1__0_0_0_0__action true))
(assert (= Config_r3_RouteFilterList_private_ips__Line1__10_0_0_0__ip #x0a000000))
(assert (= Config_r3_RouteFilterList_private_ips__Line1__10_0_0_0__mask #xff000000))
(assert (= Config_r3_RouteFilterList_private_ips__Line1__10_0_0_0__length 8))
(assert (= Config_r3_RouteFilterList_private_ips__Line1__10_0_0_0__prefix_range_start 8))
(assert (= Config_r3_RouteFilterList_private_ips__Line1__10_0_0_0__prefix_range_end 32))
(assert (= Config_r3_RouteFilterList_private_ips__Line1__10_0_0_0__action true))
(assert (= Config_r3_RouteFilterList_private_ips__Line2__172_16_0_0__ip #xac100000))
(assert (= Config_r3_RouteFilterList_private_ips__Line2__172_16_0_0__mask #xfff00000))
(assert (= Config_r3_RouteFilterList_private_ips__Line2__172_16_0_0__length 12))
(assert (= Config_r3_RouteFilterList_private_ips__Line2__172_16_0_0__prefix_range_start
   12))
(assert (= Config_r3_RouteFilterList_private_ips__Line2__172_16_0_0__prefix_range_end
   32))
(assert (= Config_r3_RouteFilterList_private_ips__Line2__172_16_0_0__action true))
(assert (= Config_r3_RouteFilterList_private_ips__Line3__192_168_0_0__ip #xc0a80000))
(assert (= Config_r3_RouteFilterList_private_ips__Line3__192_168_0_0__mask #xffff0000))
(assert (= Config_r3_RouteFilterList_private_ips__Line3__192_168_0_0__length 16))
(assert (= Config_r3_RouteFilterList_private_ips__Line3__192_168_0_0__prefix_range_start
   16))
(assert (= Config_r3_RouteFilterList_private_ips__Line3__192_168_0_0__prefix_range_end
   32))
(assert (= Config_r3_RouteFilterList_private_ips__Line3__192_168_0_0__action true))
(assert (= Config_r3_CommunityList_isp1_community__Line1__action true))
(assert (= Config_r3_CommunityList_isp1_community__Line1__community true))
(assert (= Config_r3_CommunityList_isp2_community__Line1__action true))
(assert (= Config_r3_CommunityList_isp2_community__Line1__community true))
(assert (= Config_customer2_RoutingPolicy_BGP_COMMON_EXPORT_POLICY_default__Line1__203_0_113_128__ip
   #xcb007180))
(assert (= Config_customer2_RoutingPolicy_BGP_COMMON_EXPORT_POLICY_default__Line1__203_0_113_128__mask
   #xffffff80))
(assert (= Config_customer2_RoutingPolicy_BGP_COMMON_EXPORT_POLICY_default__Line1__203_0_113_128__length
   25))
(assert (= Config_customer2_RoutingPolicy_BGP_COMMON_EXPORT_POLICY_default__Line1__203_0_113_128__prefix_range_start
   25))
(assert (= Config_customer2_RoutingPolicy_BGP_COMMON_EXPORT_POLICY_default__Line1__203_0_113_128__prefix_range_end
   25))
(assert (= Config_customer2_RoutingPolicy_BGP_REDISTRIBUTION_default__Line1__203_0_113_128__ip
   #xcb007180))
(assert (= Config_customer2_RoutingPolicy_BGP_REDISTRIBUTION_default__Line1__203_0_113_128__mask
   #xffffff80))
(assert (= Config_customer2_RoutingPolicy_BGP_REDISTRIBUTION_default__Line1__203_0_113_128__length
   25))
(assert (= Config_customer2_RoutingPolicy_BGP_REDISTRIBUTION_default__Line1__203_0_113_128__prefix_range_start
   25))
(assert (= Config_customer2_RoutingPolicy_BGP_REDISTRIBUTION_default__Line1__203_0_113_128__prefix_range_end
   25))
(assert (= Config_isp1_RoutingPolicy_BGP_COMMON_EXPORT_POLICY_default__Line1__192_0_2_0__ip
   #xc0000200))
(assert (= Config_isp1_RoutingPolicy_BGP_COMMON_EXPORT_POLICY_default__Line1__192_0_2_0__mask
   #xffffff00))
(assert (= Config_isp1_RoutingPolicy_BGP_COMMON_EXPORT_POLICY_default__Line1__192_0_2_0__length
   24))
(assert (= Config_isp1_RoutingPolicy_BGP_COMMON_EXPORT_POLICY_default__Line1__192_0_2_0__prefix_range_start
   24))
(assert (= Config_isp1_RoutingPolicy_BGP_COMMON_EXPORT_POLICY_default__Line1__192_0_2_0__prefix_range_end
   24))
(assert (= Config_isp1_RoutingPolicy_BGP_REDISTRIBUTION_default__Line1__192_0_2_0__ip
   #xc0000200))
(assert (= Config_isp1_RoutingPolicy_BGP_REDISTRIBUTION_default__Line1__192_0_2_0__mask
   #xffffff00))
(assert (= Config_isp1_RoutingPolicy_BGP_REDISTRIBUTION_default__Line1__192_0_2_0__length
   24))
(assert (= Config_isp1_RoutingPolicy_BGP_REDISTRIBUTION_default__Line1__192_0_2_0__prefix_range_start
   24))
(assert (= Config_isp1_RoutingPolicy_BGP_REDISTRIBUTION_default__Line1__192_0_2_0__prefix_range_end
   24))
(assert (= Config_customer1_RoutingPolicy_BGP_COMMON_EXPORT_POLICY_default__Line1__203_0_113_0__ip
   #xcb007100))
(assert (= Config_customer1_RoutingPolicy_BGP_COMMON_EXPORT_POLICY_default__Line1__203_0_113_0__mask
   #xffffff80))
(assert (= Config_customer1_RoutingPolicy_BGP_COMMON_EXPORT_POLICY_default__Line1__203_0_113_0__length
   25))
(assert (= Config_customer1_RoutingPolicy_BGP_COMMON_EXPORT_POLICY_default__Line1__203_0_113_0__prefix_range_start
   25))
(assert (= Config_customer1_RoutingPolicy_BGP_COMMON_EXPORT_POLICY_default__Line1__203_0_113_0__prefix_range_end
   25))
(assert (= Config_customer1_RoutingPolicy_BGP_REDISTRIBUTION_default__Line1__203_0_113_0__ip
   #xcb007100))
(assert (= Config_customer1_RoutingPolicy_BGP_REDISTRIBUTION_default__Line1__203_0_113_0__mask
   #xffffff80))
(assert (= Config_customer1_RoutingPolicy_BGP_REDISTRIBUTION_default__Line1__203_0_113_0__length
   25))
(assert (= Config_customer1_RoutingPolicy_BGP_REDISTRIBUTION_default__Line1__203_0_113_0__prefix_range_start
   25))
(assert (= Config_customer1_RoutingPolicy_BGP_REDISTRIBUTION_default__Line1__203_0_113_0__prefix_range_end
   25))
(assert (= Config_isp2_RoutingPolicy_BGP_COMMON_EXPORT_POLICY_default__Line1__192_0_2_0__ip
   #xc0000200))
(assert (= Config_isp2_RoutingPolicy_BGP_COMMON_EXPORT_POLICY_default__Line1__192_0_2_0__mask
   #xffffff00))
(assert (= Config_isp2_RoutingPolicy_BGP_COMMON_EXPORT_POLICY_default__Line1__192_0_2_0__length
   24))
(assert (= Config_isp2_RoutingPolicy_BGP_COMMON_EXPORT_POLICY_default__Line1__192_0_2_0__prefix_range_start
   24))
(assert (= Config_isp2_RoutingPolicy_BGP_COMMON_EXPORT_POLICY_default__Line1__192_0_2_0__prefix_range_end
   24))
(assert (= Config_isp2_RoutingPolicy_BGP_COMMON_EXPORT_POLICY_default__Line1__198_51_100_0__ip
   #xc6336400))
(assert (= Config_isp2_RoutingPolicy_BGP_COMMON_EXPORT_POLICY_default__Line1__198_51_100_0__mask
   #xffffff00))
(assert (= Config_isp2_RoutingPolicy_BGP_COMMON_EXPORT_POLICY_default__Line1__198_51_100_0__length
   24))
(assert (= Config_isp2_RoutingPolicy_BGP_COMMON_EXPORT_POLICY_default__Line1__198_51_100_0__prefix_range_start
   24))
(assert (= Config_isp2_RoutingPolicy_BGP_COMMON_EXPORT_POLICY_default__Line1__198_51_100_0__prefix_range_end
   24))
(assert (= Config_isp2_RoutingPolicy_BGP_REDISTRIBUTION_default__Line1__192_0_2_0__ip
   #xc0000200))
(assert (= Config_isp2_RoutingPolicy_BGP_REDISTRIBUTION_default__Line1__192_0_2_0__mask
   #xffffff00))
(assert (= Config_isp2_RoutingPolicy_BGP_REDISTRIBUTION_default__Line1__192_0_2_0__length
   24))
(assert (= Config_isp2_RoutingPolicy_BGP_REDISTRIBUTION_default__Line1__192_0_2_0__prefix_range_start
   24))
(assert (= Config_isp2_RoutingPolicy_BGP_REDISTRIBUTION_default__Line1__192_0_2_0__prefix_range_end
   24))
(assert (= Config_isp2_RoutingPolicy_BGP_REDISTRIBUTION_default__Line1__198_51_100_0__ip
   #xc6336400))
(assert (= Config_isp2_RoutingPolicy_BGP_REDISTRIBUTION_default__Line1__198_51_100_0__mask
   #xffffff00))
(assert (= Config_isp2_RoutingPolicy_BGP_REDISTRIBUTION_default__Line1__198_51_100_0__length
   24))
(assert (= Config_isp2_RoutingPolicy_BGP_REDISTRIBUTION_default__Line1__198_51_100_0__prefix_range_start
   24))
(assert (= Config_isp2_RoutingPolicy_BGP_REDISTRIBUTION_default__Line1__198_51_100_0__prefix_range_end
   24))
(assert (= Config_r1_RouteFilterList_default_ips__Line1__0_0_0_0__ip #x00000000))
(assert (= Config_r1_RouteFilterList_default_ips__Line1__0_0_0_0__mask #x00000000))
(assert (= Config_r1_RouteFilterList_default_ips__Line1__0_0_0_0__length 0))
(assert (= Config_r1_RouteFilterList_default_ips__Line1__0_0_0_0__prefix_range_start 0))
(assert (= Config_r1_RouteFilterList_default_ips__Line1__0_0_0_0__prefix_range_end 32))
(assert (= Config_r1_RouteFilterList_default_ips__Line1__0_0_0_0__action true))
(assert (= Config_r1_RouteFilterList_isp_network__Line1__192_0_2_0__ip #xc0000200))
(assert (= Config_r1_RouteFilterList_isp_network__Line1__192_0_2_0__mask #xffffff00))
(assert (= Config_r1_RouteFilterList_isp_network__Line1__192_0_2_0__length 24))
(assert (= Config_r1_RouteFilterList_isp_network__Line1__192_0_2_0__prefix_range_start
   24))
(assert (= Config_r1_RouteFilterList_isp_network__Line1__192_0_2_0__prefix_range_end 32))
(assert (= Config_r1_RouteFilterList_isp_network__Line1__192_0_2_0__action true))
(assert (= Config_r1_RouteFilterList_isp_network__Line2__198_51_100_0__ip #xc6336400))
(assert (= Config_r1_RouteFilterList_isp_network__Line2__198_51_100_0__mask #xffffff00))
(assert (= Config_r1_RouteFilterList_isp_network__Line2__198_51_100_0__length 24))
(assert (= Config_r1_RouteFilterList_isp_network__Line2__198_51_100_0__prefix_range_start
   24))
(assert (= Config_r1_RouteFilterList_isp_network__Line2__198_51_100_0__prefix_range_end
   32))
(assert (= Config_r1_RouteFilterList_isp_network__Line2__198_51_100_0__action true))
(assert (= Config_r1_CommunityList_isp1_community__Line1__action true))
(assert (= Config_r1_CommunityList_isp1_community__Line1__community true))
(assert (= Config_r1_RoutingPolicy_as2_to_as1__Line1__set_localpreference_400 400))
(assert (= Config_r1_RoutingPolicy_as2_to_as1__Line1__add_community_200_100_community
   true))
(assert (= Config_r1_RoutingPolicy_as3_to_as1__Line1__set_localpreference_350 350))
(assert (= Config_r1_RoutingPolicy_as3_to_as1__Line1__add_community_300_100_community
   true))

